WARNING: for repeatability, setting FPU to use double precision
============================[ Problem Statistics ]=============================
|                                                                             |
|  Number of variables:            50                                         |
|  Number of clauses:             218                                         |
|  Parse time:                   0.00 s                                       |
|                                                                             |
============================[ Search Statistics ]==============================
| Conflicts |          ORIGINAL         |          LEARNT          | Progress |
|           |    Vars  Clauses Literals |    Limit  Clauses Lit/Cl |          |
===============================================================================
===============================================================================
restarts              : 1
conflicts             : 27             (19054 /sec)
decisions             : 50             (0.00 % random) (35286 /sec)
propagations          : 422            (297812 /sec)
conflict literals     : 136            (6.85 % deleted)
Memory used           : 20.00 MB
CPU time              : 0.001417 s

SATISFIABLE
